Total weight: 778.9733097961007
Route 1: 0 20 22 24 27 30 29 6 32 33 31 35 37 38 39 36 34 28 26 23 18 19 16 14 12 15 17 13 25 9 11 10 8 21 0 
Route 2: 0 93 5 2 75 67 69 66 61 64 68 65 49 55 54 57 40 44 46 45 51 50 52 47 42 41 43 48 0 
Route 3: 0 62 72 74 63 1 99 100 97 92 94 95 98 7 3 4 89 91 88 86 84 83 82 85 76 71 70 73 79 81 78 77 96 87 90 0 
Route 4: 0 59 58 60 56 53 80 0 
